30
4	8	10	11	12	16	17	19	20	21	25	26	27	29	0
6	7	12	15	16	17	18	23	24	25	26	28	29	30	0
4	6	8	9	12	14	17	18	21	23	24	25	27	28	0
1	3	6	13	15	18	24	25	26	27	0
7	8	19	22	23	24	25	0
2	3	4	7	9	12	18	22	27	29	30	0
2	5	6	8	10	21	22	25	27	29	0
1	3	5	7	10	14	18	22	25	27	0
3	6	12	13	20	23	26	29	0
1	7	8	13	18	20	22	27	30	0
1	13	14	15	16	17	20	21	22	26	30	0
1	2	3	6	9	13	14	15	16	18	19	21	22	23	24	28	30	0
4	9	10	11	12	14	15	16	18	20	23	25	30	0
3	8	11	12	13	15	16	18	19	21	22	23	25	27	0
2	4	11	12	13	14	16	18	21	23	24	30	0
1	2	11	12	13	14	15	17	19	24	25	0
1	2	3	11	16	18	20	21	30	0
2	3	4	6	8	10	12	13	14	15	17	22	23	24	26	27	28	0
1	5	12	14	16	23	26	30	0
1	9	10	11	13	17	22	24	25	0
1	3	7	11	12	14	15	17	22	23	24	26	28	30	0
5	6	7	8	10	11	12	14	18	20	21	26	28	29	0
2	3	5	9	12	13	14	15	18	19	21	24	0
2	3	4	5	12	15	16	18	20	21	23	27	29	0
1	2	3	4	5	7	8	13	14	16	20	26	27	0
1	2	4	9	11	18	19	21	22	25	27	29	0
1	3	4	6	7	8	10	14	18	24	25	26	29	0
2	3	12	18	21	22	0
1	2	6	7	9	22	24	26	27	0
2	6	10	11	12	13	15	17	19	21	0


comments:
random graph
nodes 30
edges 172
rng seed 924 
